 &input
  fildyn = 'harmdyn_support',
  asr = 'simple'
 /
